<number of tasks>
70

<cycle time>
251

<task times>
1 17
2 66
3 54
4 52
5 6
6 88
7 21
8 128
9 68
10 70
11 85
12 21
13 134
14 135
15 94
16 90
17 50
18 143
19 19
20 54
21 50
22 40
23 73
24 12
25 152
26 42
27 45
28 74
29 26
30 11
31 31
32 50
33 102
34 46
35 35
36 40
37 2
38 1
39 3
40 13
41 16
42 25
43 21
44 43
45 30
46 83
47 89
48 56
49 59
50 43
51 11
52 26
53 44
54 121
55 38
56 68
57 22
58 7
59 16
60 32
61 25
62 27
63 156
64 28
65 15
66 26
67 18
68 72
69 23
70 27

<precedence relations>
1,2
1,41
1,69
1,70
2,3
3,4
3,68
4,6
4,7
5,6
5,24
5,30
6,8
7,8
8,12
9,10
10,11
11,12
12,13
12,14
13,23
14,23
15,16
16,17
16,18
17,19
18,19
19,20
19,22
19,57
20,21
21,23
22,23
23,25
23,31
23,33
24,25
25,26
25,27
25,28
25,29
26,35
27,35
28,35
29,35
30,31
31,32
32,35
33,34
34,35
35,36
35,44
35,48
35,51
35,53
35,56
35,60
35,61
35,62
36,37
37,38
38,39
39,40
40,42
41,42
42,43
43,50
44,45
45,46
46,47
47,50
48,49
49,50
51,52
52,54
53,54
54,55
57,58
58,59
59,60
61,65
62,63
63,64
64,65
64,66
64,67

<setup times forward>
1,2:4
1,5:1
1,9:2
1,10:2
1,11:1
1,18:4
1,19:4
1,20:1
1,21:3
1,22:3
1,24:1
1,30:1
1,41:1
1,57:4
1,58:2
1,59:2
1,69:5
1,70:3
2,3:6
2,5:3
2,9:6
2,10:6
2,11:3
2,15:4
2,16:4
2,17:4
2,20:3
2,21:7
2,22:7
2,24:5
2,30:3
2,41:3
2,58:6
2,59:2
2,69:9
2,70:7
3,5:3
3,11:3
3,15:2
3,16:2
3,17:2
3,18:6
3,19:6
3,20:3
3,21:1
3,22:1
3,24:1
3,30:3
3,41:3
3,57:6
3,59:4
3,68:3
3,69:3
3,70:1
4,5:3
4,6:3
4,7:3
4,11:3
4,15:2
4,16:2
4,17:2
4,18:6
4,19:6
4,20:3
4,21:1
4,22:1
4,24:1
4,30:3
4,41:3
4,57:6
4,59:4
4,68:3
4,69:3
4,70:1
5,1:1
5,2:3
5,3:3
5,4:3
5,9:3
5,10:3
5,15:1
5,16:1
5,17:1
5,18:3
5,19:3
5,21:4
5,22:4
5,24:2
5,57:3
5,58:3
5,59:1
5,69:6
5,70:4
6,9:3
6,10:3
6,15:1
6,16:1
6,17:1
6,18:3
6,19:3
6,21:4
6,22:4
6,24:2
6,57:3
6,58:3
6,59:1
6,69:6
6,70:4
7,9:3
7,10:3
7,15:1
7,16:1
7,17:1
7,18:3
7,19:3
7,21:4
7,22:4
7,24:2
7,57:3
7,58:3
7,59:1
7,69:6
7,70:4
8,9:3
8,10:3
8,15:1
8,16:1
8,17:1
8,18:3
8,19:3
8,21:4
8,22:4
8,24:2
8,57:3
8,58:3
8,59:1
8,69:6
8,70:4
9,1:2
9,2:6
9,5:3
9,6:3
9,7:3
9,8:3
9,15:2
9,16:2
9,17:2
9,18:6
9,19:6
9,20:3
9,21:1
9,22:1
9,24:1
9,30:3
9,41:3
9,57:6
9,59:4
9,68:3
9,69:3
9,70:1
10,1:2
10,2:6
10,5:3
10,6:3
10,7:3
10,8:3
10,11:3
10,15:2
10,16:2
10,17:2
10,18:6
10,19:6
10,20:3
10,21:1
10,22:1
10,24:1
10,30:3
10,41:3
10,57:6
10,59:4
10,68:3
10,69:3
10,70:1
11,1:1
11,2:3
11,3:3
11,4:3
11,15:1
11,16:1
11,17:1
11,18:3
11,19:3
11,21:4
11,22:4
11,24:2
11,57:3
11,58:3
11,59:1
11,69:6
11,70:4
12,13:4
12,14:2
12,15:1
12,16:1
12,17:1
12,18:3
12,19:3
12,21:4
12,22:4
12,24:2
12,57:3
12,58:3
12,59:1
12,69:6
12,70:4
13,14:2
13,15:3
13,16:3
13,17:3
13,18:7
13,19:7
13,20:4
13,23:2
13,24:2
13,30:4
13,41:4
13,57:7
13,58:1
13,59:5
13,68:4
13,69:2
14,13:2
14,15:1
14,16:1
14,17:1
14,18:5
14,19:5
14,20:2
14,21:2
14,22:2
14,30:2
14,41:2
14,57:5
14,58:1
14,59:3
14,68:2
14,69:4
14,70:2
15,2:4
15,3:2
15,4:2
15,5:1
15,6:1
15,7:1
15,8:1
15,9:2
15,10:2
15,11:1
15,12:1
15,13:3
15,14:1
15,24:1
15,30:1
15,41:1
15,68:1
15,69:5
15,70:3
16,2:4
16,3:2
16,4:2
16,5:1
16,6:1
16,7:1
16,8:1
16,9:2
16,10:2
16,11:1
16,12:1
16,13:3
16,14:1
16,18:4
16,24:1
16,30:1
16,41:1
16,68:1
16,69:5
16,70:3
17,2:4
17,3:2
17,4:2
17,5:1
17,6:1
17,7:1
17,8:1
17,9:2
17,10:2
17,11:1
17,12:1
17,13:3
17,14:1
17,18:4
17,19:4
17,24:1
17,30:1
17,41:1
17,68:1
17,69:5
17,70:3
18,1:4
18,3:6
18,4:6
18,5:3
18,6:3
18,7:3
18,8:3
18,9:6
18,10:6
18,11:3
18,12:3
18,13:7
18,14:5
18,17:4
18,24:5
18,30:3
18,41:3
18,68:3
18,69:9
18,70:7
19,1:4
19,3:6
19,4:6
19,5:3
19,6:3
19,7:3
19,8:3
19,9:6
19,10:6
19,11:3
19,12:3
19,13:7
19,14:5
19,20:3
19,22:7
19,24:5
19,30:3
19,41:3
19,68:3
19,69:9
19,70:7
20,1:1
20,2:3
20,3:3
20,4:3
20,9:3
20,10:3
20,13:4
20,14:2
20,21:4
20,22:4
20,24:2
20,57:3
20,58:3
20,59:1
20,69:6
20,70:4
21,1:3
21,2:7
21,3:1
21,4:1
21,5:4
21,6:4
21,7:4
21,8:4
21,9:1
21,10:1
21,11:4
21,12:4
21,14:2
21,23:2
21,24:2
21,30:4
21,41:4
21,57:7
21,58:1
21,59:5
21,68:4
21,69:2
22,1:3
22,2:7
22,3:1
22,4:1
22,5:4
22,6:4
22,7:4
22,8:4
22,9:1
22,10:1
22,11:4
22,12:4
22,14:2
22,20:4
22,23:2
22,24:2
22,30:4
22,41:4
22,57:7
22,58:1
22,59:5
22,68:4
22,69:2
23,25:4
23,30:2
23,33:3
23,41:2
23,57:5
23,58:1
23,59:3
23,68:2
23,69:4
23,70:2
24,1:1
24,2:5
24,3:1
24,4:1
24,6:2
24,7:2
24,8:2
24,9:1
24,10:1
24,11:2
24,12:2
24,13:2
24,15:1
24,16:1
24,17:1
24,18:5
24,19:5
24,20:2
24,21:2
24,22:2
24,25:4
24,30:2
24,32:1
24,33:3
24,34:3
24,41:2
24,57:5
24,58:1
24,59:3
24,68:2
24,69:4
24,70:2
25,26:7
25,27:7
25,29:3
25,30:6
25,31:4
25,32:3
25,33:7
25,34:7
25,41:6
25,57:9
25,58:3
25,59:7
25,68:6
25,70:2
26,28:7
26,29:4
26,30:1
26,31:3
26,32:4
26,35:4
26,41:1
26,57:2
26,58:4
26,68:1
26,69:7
26,70:5
27,28:7
27,29:4
27,30:1
27,31:3
27,32:4
27,35:4
27,41:1
27,57:2
27,58:4
27,68:1
27,69:7
27,70:5
28,26:7
28,27:7
28,29:3
28,30:6
28,31:4
28,32:3
28,33:7
28,34:7
28,35:3
28,41:6
28,57:9
28,58:3
28,59:7
28,68:6
28,70:2
29,26:4
29,27:4
29,28:3
29,30:3
29,31:1
29,33:4
29,34:4
29,41:3
29,57:6
29,59:4
29,68:3
29,69:3
29,70:1
30,1:1
30,2:3
30,3:3
30,4:3
30,9:3
30,10:3
30,13:4
30,14:2
30,15:1
30,16:1
30,17:1
30,18:3
30,19:3
30,21:4
30,22:4
30,23:2
30,24:2
30,25:6
30,26:1
30,27:1
30,28:6
30,29:3
30,31:2
30,33:1
30,34:1
30,57:3
30,58:3
30,59:1
30,69:6
30,70:4
31,25:4
31,26:3
31,27:3
31,28:4
31,29:1
31,32:1
31,33:3
31,34:3
31,41:2
31,57:5
31,58:1
31,59:3
31,68:2
31,69:4
31,70:2
32,24:1
32,25:3
32,26:4
32,27:4
32,28:3
32,33:4
32,34:4
32,41:3
32,57:6
32,59:4
32,68:3
32,69:3
32,70:1
33,24:3
33,25:7
33,28:7
33,29:4
33,30:1
33,31:3
33,32:4
33,41:1
33,57:2
33,58:4
33,68:1
33,69:7
33,70:5
34,24:3
34,25:7
34,28:7
34,29:4
34,30:1
34,31:3
34,32:4
34,35:4
34,41:1
34,57:2
34,58:4
34,68:1
34,69:7
34,70:5
35,41:3
35,48:3
35,51:1
35,53:4
35,56:1
35,57:6
35,59:4
35,60:4
35,61:1
35,68:3
35,69:3
35,70:1
36,37:4
36,41:3
36,46:3
36,47:5
36,48:3
36,49:3
36,51:1
36,52:1
36,53:4
36,54:1
36,55:5
36,56:1
36,57:6
36,59:4
36,60:4
36,61:1
36,63:4
36,64:3
36,65:5
36,66:5
36,67:5
36,68:3
36,69:3
36,70:1
37,41:7
37,44:4
37,45:4
37,46:7
37,47:9
37,48:7
37,49:7
37,51:5
37,52:5
37,54:5
37,55:9
37,56:5
37,57:10
37,58:4
37,59:8
37,61:5
37,62:4
37,64:7
37,65:9
37,66:9
37,67:9
37,68:7
37,69:1
37,70:3
38,41:7
38,44:4
38,45:4
38,46:7
38,47:9
38,48:7
38,49:7
38,51:5
38,52:5
38,54:5
38,55:9
38,56:5
38,57:10
38,58:4
38,59:8
38,61:5
38,62:4
38,64:7
38,65:9
38,66:9
38,67:9
38,68:7
38,69:1
38,70:3
39,41:7
39,44:4
39,45:4
39,46:7
39,47:9
39,48:7
39,49:7
39,51:5
39,52:5
39,54:5
39,55:9
39,56:5
39,57:10
39,58:4
39,59:8
39,61:5
39,62:4
39,64:7
39,65:9
39,66:9
39,67:9
39,68:7
39,69:1
39,70:3
40,41:7
40,42:7
40,44:4
40,45:4
40,46:7
40,47:9
40,48:7
40,49:7
40,51:5
40,52:5
40,54:5
40,55:9
40,56:5
40,57:10
40,58:4
40,59:8
40,61:5
40,62:4
40,64:7
40,65:9
40,66:9
40,67:9
40,68:7
40,69:1
40,70:3
41,2:3
41,3:3
41,4:3
41,9:3
41,10:3
41,13:4
41,14:2
41,15:1
41,16:1
41,17:1
41,18:3
41,19:3
41,21:4
41,22:4
41,23:2
41,24:2
41,25:6
41,26:1
41,27:1
41,28:6
41,29:3
41,31:2
41,32:3
41,33:1
41,34:1
41,35:3
41,36:3
41,37:7
41,38:7
41,39:7
41,40:7
41,44:3
41,45:3
41,47:2
41,51:2
41,52:2
41,53:7
41,54:2
41,55:2
41,56:2
41,57:3
41,58:3
41,59:1
41,60:7
41,61:2
41,62:3
41,63:7
41,65:2
41,66:2
41,67:2
41,69:6
41,70:4
42,43:2
42,44:3
42,45:3
42,47:2
42,51:2
42,52:2
42,53:7
42,54:2
42,55:2
42,56:2
42,57:3
42,58:3
42,59:1
42,60:7
42,61:2
42,62:3
42,63:7
42,65:2
42,66:2
42,67:2
42,69:6
42,70:4
43,44:5
43,45:5
43,46:2
43,48:2
43,49:2
43,51:4
43,52:4
43,53:9
43,54:4
43,56:4
43,57:1
43,58:5
43,59:1
43,60:9
43,61:4
43,62:5
43,63:9
43,64:2
43,68:2
43,69:8
43,70:6
44,37:4
44,38:4
44,39:4
44,40:4
44,41:3
44,42:3
44,43:5
44,48:3
44,49:3
44,51:1
44,52:1
44,53:4
44,54:1
44,55:5
44,56:1
44,57:6
44,59:4
44,60:4
44,61:1
44,63:4
44,64:3
44,65:5
44,66:5
44,67:5
44,68:3
44,69:3
44,70:1
45,37:4
45,38:4
45,39:4
45,40:4
45,41:3
45,42:3
45,43:5
45,46:3
45,48:3
45,49:3
45,51:1
45,52:1
45,53:4
45,54:1
45,55:5
45,56:1
45,57:6
45,59:4
45,60:4
45,61:1
45,63:4
45,64:3
45,65:5
45,66:5
45,67:5
45,68:3
45,69:3
45,70:1
46,36:3
46,37:7
46,38:7
46,39:7
46,40:7
46,43:2
46,47:2
46,51:2
46,52:2
46,53:7
46,54:2
46,55:2
46,56:2
46,57:3
46,58:3
46,59:1
46,60:7
46,61:2
46,62:3
46,63:7
46,65:2
46,66:2
46,67:2
46,69:6
46,70:4
47,36:5
47,37:9
47,38:9
47,39:9
47,40:9
47,41:2
47,42:2
47,48:2
47,49:2
47,51:4
47,52:4
47,53:9
47,54:4
47,56:4
47,57:1
47,58:5
47,59:1
47,60:9
47,61:4
47,62:5
47,63:9
47,64:2
47,68:2
47,69:8
47,70:6
48,36:3
48,37:7
48,38:7
48,39:7
48,40:7
48,43:2
48,44:3
48,45:3
48,47:2
48,51:2
48,52:2
48,53:7
48,54:2
48,55:2
48,56:2
48,57:3
48,58:3
48,59:1
48,60:7
48,61:2
48,62:3
48,63:7
48,65:2
48,66:2
48,67:2
48,69:6
48,70:4
49,36:3
49,37:7
49,38:7
49,39:7
49,40:7
49,43:2
49,44:3
49,45:3
49,47:2
49,50:2
49,51:2
49,52:2
49,53:7
49,54:2
49,55:2
49,56:2
49,57:3
49,58:3
49,59:1
49,60:7
49,61:2
49,62:3
49,63:7
49,65:2
49,66:2
49,67:2
49,69:6
49,70:4
50,51:4
50,52:4
50,53:9
50,54:4
50,56:4
50,57:1
50,58:5
50,59:1
50,60:9
50,61:4
50,62:5
50,63:9
50,64:2
50,68:2
50,69:8
50,70:6
51,36:1
51,37:5
51,38:5
51,39:5
51,40:5
51,41:2
51,42:2
51,43:4
51,44:1
51,45:1
51,46:2
51,47:4
51,48:2
51,49:2
51,50:4
51,53:5
51,57:5
51,58:1
51,59:3
51,60:5
51,62:1
51,63:5
51,64:2
51,65:4
51,66:4
51,67:4
51,68:2
51,69:4
51,70:2
52,36:1
52,37:5
52,38:5
52,39:5
52,40:5
52,41:2
52,42:2
52,43:4
52,44:1
52,45:1
52,46:2
52,47:4
52,48:2
52,49:2
52,50:4
52,53:5
52,57:5
52,58:1
52,59:3
52,60:5
52,62:1
52,63:5
52,64:2
52,65:4
52,66:4
52,67:4
52,68:2
52,69:4
52,70:2
53,36:4
53,41:7
53,42:7
53,43:9
53,44:4
53,45:4
53,46:7
53,47:9
53,48:7
53,49:7
53,50:9
53,51:5
53,52:5
53,54:5
53,56:5
53,57:10
53,58:4
53,59:8
53,61:5
53,62:4
53,64:7
53,65:9
53,66:9
53,67:9
53,68:7
53,69:1
53,70:3
54,36:1
54,37:5
54,38:5
54,39:5
54,40:5
54,41:2
54,42:2
54,43:4
54,44:1
54,45:1
54,46:2
54,47:4
54,48:2
54,49:2
54,50:4
54,55:4
54,57:5
54,58:1
54,59:3
54,60:5
54,62:1
54,63:5
54,64:2
54,65:4
54,66:4
54,67:4
54,68:2
54,69:4
54,70:2
55,36:5
55,37:9
55,38:9
55,39:9
55,40:9
55,41:2
55,42:2
55,44:5
55,45:5
55,46:2
55,48:2
55,49:2
55,56:4
55,57:1
55,58:5
55,59:1
55,60:9
55,61:4
55,62:5
55,63:9
55,64:2
55,68:2
55,69:8
55,70:6
56,36:1
56,37:5
56,38:5
56,39:5
56,40:5
56,41:2
56,42:2
56,43:4
56,44:1
56,45:1
56,46:2
56,47:4
56,48:2
56,49:2
56,50:4
56,53:5
56,55:4
56,57:5
56,58:1
56,59:3
56,60:5
56,62:1
56,63:5
56,64:2
56,65:4
56,66:4
56,67:4
56,68:2
56,69:4
56,70:2
57,1:4
57,3:6
57,4:6
57,5:3
57,6:3
57,7:3
57,8:3
57,9:6
57,10:6
57,11:3
57,12:3
57,13:7
57,14:5
57,20:3
57,21:7
57,22:7
57,23:5
57,24:5
57,25:9
57,26:2
57,27:2
57,28:9
57,29:6
57,30:3
57,31:5
57,32:6
57,33:2
57,34:2
57,35:6
57,36:6
57,37:10
57,38:10
57,39:10
57,40:10
57,41:3
57,42:3
57,43:1
57,44:6
57,45:6
57,46:3
57,47:1
57,48:3
57,49:3
57,50:1
57,51:5
57,52:5
57,53:10
57,54:5
57,55:1
57,56:5
57,58:6
57,61:5
57,62:6
57,63:10
57,64:3
57,65:1
57,66:1
57,67:1
57,68:3
57,69:9
57,70:7
58,1:2
58,2:6
58,5:3
58,6:3
58,7:3
58,8:3
58,11:3
58,12:3
58,13:1
58,14:1
58,20:3
58,21:1
58,22:1
58,23:1
58,24:1
58,25:3
58,26:4
58,27:4
58,28:3
58,30:3
58,31:1
58,33:4
58,34:4
58,37:4
58,38:4
58,39:4
58,40:4
58,41:3
58,42:3
58,43:5
58,46:3
58,47:5
58,48:3
58,49:3
58,50:5
58,51:1
58,52:1
58,53:4
58,54:1
58,55:5
58,56:1
58,59:4
58,61:1
58,63:4
58,64:3
58,65:5
58,66:5
58,67:5
58,68:3
58,69:3
58,70:1
59,1:2
59,2:2
59,3:4
59,4:4
59,5:1
59,6:1
59,7:1
59,8:1
59,9:4
59,10:4
59,11:1
59,12:1
59,13:5
59,14:3
59,20:1
59,21:5
59,22:5
59,23:3
59,24:3
59,25:7
59,28:7
59,29:4
59,30:1
59,31:3
59,32:4
59,35:4
59,36:4
59,37:8
59,38:8
59,39:8
59,40:8
59,41:1
59,42:1
59,43:1
59,44:4
59,45:4
59,46:1
59,47:1
59,48:1
59,49:1
59,50:1
59,51:3
59,52:3
59,53:8
59,54:3
59,55:1
59,56:3
59,60:8
59,61:3
59,62:4
59,63:8
59,64:1
59,65:1
59,66:1
59,67:1
59,68:1
59,69:7
59,70:5
60,36:4
60,41:7
60,42:7
60,43:9
60,44:4
60,45:4
60,46:7
60,47:9
60,48:7
60,49:7
60,50:9
60,51:5
60,52:5
60,54:5
60,55:9
60,56:5
60,61:5
60,62:4
60,64:7
60,65:9
60,66:9
60,67:9
60,68:7
60,69:1
60,70:3
61,36:1
61,37:5
61,38:5
61,39:5
61,40:5
61,41:2
61,42:2
61,43:4
61,44:1
61,45:1
61,46:2
61,47:4
61,48:2
61,49:2
61,50:4
61,53:5
61,55:4
61,57:5
61,58:1
61,59:3
61,60:5
61,62:1
61,63:5
61,64:2
61,65:4
61,66:4
61,67:4
61,68:2
61,69:4
61,70:2
62,37:4
62,38:4
62,39:4
62,40:4
62,41:3
62,42:3
62,43:5
62,46:3
62,47:5
62,48:3
62,49:3
62,50:5
62,51:1
62,52:1
62,53:4
62,54:1
62,55:5
62,56:1
62,57:6
62,59:4
62,60:4
62,61:1
62,63:4
62,68:3
62,69:3
62,70:1
63,36:4
63,41:7
63,42:7
63,43:9
63,44:4
63,45:4
63,46:7
63,47:9
63,48:7
63,49:7
63,50:9
63,51:5
63,52:5
63,54:5
63,55:9
63,56:5
63,57:10
63,58:4
63,59:8
63,61:5
63,64:7
63,68:7
63,69:1
63,70:3
64,36:3
64,37:7
64,38:7
64,39:7
64,40:7
64,43:2
64,44:3
64,45:3
64,47:2
64,50:2
64,51:2
64,52:2
64,53:7
64,54:2
64,55:2
64,56:2
64,57:3
64,58:3
64,59:1
64,60:7
64,61:2
64,65:2
64,66:2
64,67:2
64,69:6
64,70:4
65,36:5
65,37:9
65,38:9
65,39:9
65,40:9
65,41:2
65,42:2
65,44:5
65,45:5
65,46:2
65,48:2
65,49:2
65,51:4
65,52:4
65,53:9
65,54:4
65,56:4
65,57:1
65,58:5
65,59:1
65,60:9
65,68:2
65,69:8
65,70:6
66,36:5
66,37:9
66,38:9
66,39:9
66,40:9
66,41:2
66,42:2
66,44:5
66,45:5
66,46:2
66,48:2
66,49:2
66,51:4
66,52:4
66,53:9
66,54:4
66,56:4
66,57:1
66,58:5
66,59:1
66,60:9
66,61:4
66,68:2
66,69:8
66,70:6
67,36:5
67,37:9
67,38:9
67,39:9
67,40:9
67,41:2
67,42:2
67,44:5
67,45:5
67,46:2
67,48:2
67,49:2
67,51:4
67,52:4
67,53:9
67,54:4
67,56:4
67,57:1
67,58:5
67,59:1
67,60:9
67,61:4
67,68:2
67,69:8
67,70:6
68,4:3
68,9:3
68,10:3
68,13:4
68,14:2
68,15:1
68,16:1
68,17:1
68,18:3
68,19:3
68,21:4
68,22:4
68,23:2
68,24:2
68,25:6
68,26:1
68,27:1
68,28:6
68,29:3
68,31:2
68,32:3
68,33:1
68,34:1
68,35:3
68,36:3
68,37:7
68,38:7
68,39:7
68,40:7
68,43:2
68,44:3
68,45:3
68,47:2
68,50:2
68,51:2
68,52:2
68,53:7
68,54:2
68,55:2
68,56:2
68,57:3
68,58:3
68,59:1
68,60:7
68,61:2
68,62:3
68,63:7
68,65:2
68,66:2
68,67:2
68,69:6
68,70:4
69,2:9
69,3:3
69,4:3
69,5:6
69,6:6
69,7:6
69,8:6
69,9:3
69,10:3
69,11:6
69,12:6
69,13:2
69,14:4
69,15:5
69,16:5
69,17:5
69,18:9
69,19:9
69,20:6
69,21:2
69,22:2
69,23:4
69,24:4
69,26:7
69,27:7
69,29:3
69,30:6
69,31:4
69,32:3
69,33:7
69,34:7
69,35:3
69,36:3
69,37:1
69,38:1
69,39:1
69,40:1
69,41:6
69,42:6
69,43:8
69,44:3
69,45:3
69,46:6
69,47:8
69,48:6
69,49:6
69,50:8
69,51:4
69,52:4
69,53:1
69,54:4
69,55:8
69,56:4
69,57:9
69,58:3
69,59:7
69,60:1
69,61:4
69,62:3
69,63:1
69,64:6
69,65:8
69,66:8
69,67:8
69,68:6
69,70:2
70,2:7
70,3:1
70,4:1
70,5:4
70,6:4
70,7:4
70,8:4
70,9:1
70,10:1
70,11:4
70,12:4
70,14:2
70,15:3
70,16:3
70,17:3
70,18:7
70,19:7
70,20:4
70,23:2
70,24:2
70,25:2
70,26:5
70,27:5
70,28:2
70,29:1
70,30:4
70,31:2
70,32:1
70,33:5
70,34:5
70,35:1
70,36:1
70,37:3
70,38:3
70,39:3
70,40:3
70,41:4
70,42:4
70,43:6
70,44:1
70,45:1
70,46:4
70,47:6
70,48:4
70,49:4
70,50:6
70,51:2
70,52:2
70,53:3
70,54:2
70,55:6
70,56:2
70,57:7
70,58:1
70,59:5
70,60:3
70,61:2
70,62:1
70,63:3
70,64:4
70,65:6
70,66:6
70,67:6
70,68:4
70,69:2

<setup times backward>
1,9:2
1,10:2
1,21:3
1,22:3
1,24:1
1,58:2
2,1:4
2,5:3
2,9:6
2,10:6
2,11:3
2,15:4
2,16:4
2,17:4
2,20:3
2,21:7
2,22:7
2,24:5
2,30:3
2,41:3
2,58:6
2,59:2
2,69:9
2,70:7
3,21:1
3,22:1
3,69:3
3,70:1
4,21:1
4,22:1
4,69:3
4,70:1
5,1:1
5,3:3
5,4:3
5,9:3
5,10:3
5,15:1
5,16:1
5,17:1
5,21:4
5,22:4
5,58:3
5,69:6
5,70:4
6,1:1
6,3:3
6,4:3
6,9:3
6,10:3
6,15:1
6,16:1
6,17:1
6,21:4
6,22:4
6,24:2
6,58:3
6,69:6
6,70:4
7,1:1
7,3:3
7,4:3
7,9:3
7,10:3
7,15:1
7,16:1
7,17:1
7,21:4
7,22:4
7,24:2
7,58:3
7,69:6
7,70:4
8,1:1
8,3:3
8,4:3
8,9:3
8,10:3
8,15:1
8,16:1
8,17:1
8,21:4
8,22:4
8,24:2
8,58:3
8,69:6
8,70:4
9,21:1
9,22:1
9,69:3
9,70:1
10,21:1
10,22:1
10,69:3
10,70:1
11,1:1
11,3:3
11,4:3
11,9:3
11,10:3
11,15:1
11,16:1
11,17:1
11,21:4
11,22:4
11,24:2
11,58:3
11,69:6
11,70:4
12,1:1
12,3:3
12,4:3
12,9:3
12,10:3
12,15:1
12,16:1
12,17:1
12,21:4
12,22:4
12,24:2
12,58:3
12,69:6
12,70:4
13,69:2
14,3:1
14,4:1
14,9:1
14,10:1
14,13:2
14,21:2
14,22:2
14,58:1
14,69:4
14,70:2
15,3:2
15,4:2
15,9:2
15,10:2
15,13:3
15,14:1
15,24:1
15,69:5
15,70:3
16,3:2
16,4:2
16,9:2
16,10:2
16,13:3
16,14:1
16,24:1
16,69:5
16,70:3
17,3:2
17,4:2
17,9:2
17,10:2
17,13:3
17,14:1
17,24:1
17,69:5
17,70:3
18,1:4
18,3:6
18,4:6
18,5:3
18,6:3
18,7:3
18,8:3
18,9:6
18,10:6
18,11:3
18,12:3
18,13:7
18,14:5
18,15:4
18,16:4
18,17:4
18,24:5
18,30:3
18,41:3
18,68:3
18,69:9
18,70:7
19,1:4
19,3:6
19,4:6
19,5:3
19,6:3
19,7:3
19,8:3
19,9:6
19,10:6
19,11:3
19,12:3
19,13:7
19,14:5
19,15:4
19,16:4
19,17:4
19,24:5
19,30:3
19,41:3
19,68:3
19,69:9
19,70:7
20,1:1
20,3:3
20,4:3
20,9:3
20,10:3
20,13:4
20,14:2
20,15:1
20,16:1
20,17:1
20,22:4
20,24:2
20,58:3
20,69:6
20,70:4
21,69:2
22,69:2
23,3:1
23,4:1
23,9:1
23,10:1
23,13:2
23,21:2
23,22:2
23,58:1
23,69:4
23,70:2
24,3:1
24,4:1
24,9:1
24,10:1
24,13:2
24,21:2
24,22:2
24,32:1
24,58:1
24,69:4
24,70:2
26,1:2
26,3:4
26,4:4
26,5:1
26,6:1
26,7:1
26,8:1
26,9:4
26,10:4
26,11:1
26,12:1
26,13:5
26,14:3
26,15:2
26,16:2
26,17:2
26,20:1
26,21:5
26,22:5
26,23:3
26,24:3
26,25:7
26,28:7
26,29:4
26,30:1
26,31:3
26,32:4
26,41:1
26,58:4
26,68:1
26,69:7
26,70:5
27,1:2
27,3:4
27,4:4
27,5:1
27,6:1
27,7:1
27,8:1
27,9:4
27,10:4
27,11:1
27,12:1
27,13:5
27,14:3
27,15:2
27,16:2
27,17:2
27,20:1
27,21:5
27,22:5
27,23:3
27,24:3
27,25:7
27,28:7
27,29:4
27,30:1
27,31:3
27,32:4
27,41:1
27,58:4
27,68:1
27,69:7
27,70:5
29,13:1
29,21:1
29,22:1
29,25:3
29,28:3
29,69:3
29,70:1
30,1:1
30,3:3
30,4:3
30,9:3
30,10:3
30,13:4
30,14:2
30,15:1
30,16:1
30,17:1
30,21:4
30,22:4
30,23:2
30,24:2
30,25:6
30,28:6
30,29:3
30,58:3
30,69:6
30,70:4
31,3:1
31,4:1
31,9:1
31,10:1
31,13:2
31,21:2
31,22:2
31,25:4
31,28:4
31,29:1
31,58:1
31,69:4
31,70:2
32,13:1
32,21:1
32,22:1
32,25:3
32,28:3
32,69:3
32,70:1
33,1:2
33,3:4
33,4:4
33,5:1
33,6:1
33,7:1
33,8:1
33,9:4
33,10:4
33,11:1
33,12:1
33,13:5
33,14:3
33,15:2
33,16:2
33,17:2
33,20:1
33,21:5
33,22:5
33,23:3
33,24:3
33,25:7
33,28:7
33,29:4
33,30:1
33,31:3
33,32:4
33,41:1
33,58:4
33,68:1
33,69:7
33,70:5
34,1:2
34,3:4
34,4:4
34,5:1
34,6:1
34,7:1
34,8:1
34,9:4
34,10:4
34,11:1
34,12:1
34,13:5
34,14:3
34,15:2
34,16:2
34,17:2
34,20:1
34,21:5
34,22:5
34,23:3
34,24:3
34,25:7
34,28:7
34,29:4
34,30:1
34,31:3
34,32:4
34,41:1
34,58:4
34,68:1
34,69:7
34,70:5
35,13:1
35,21:1
35,22:1
35,25:3
35,28:3
35,69:3
35,70:1
36,13:1
36,21:1
36,22:1
36,25:3
36,28:3
36,53:4
36,60:4
36,63:4
36,69:3
36,70:1
41,1:1
41,3:3
41,4:3
41,9:3
41,10:3
41,13:4
41,14:2
41,15:1
41,16:1
41,17:1
41,21:4
41,22:4
41,23:2
41,24:2
41,25:6
41,28:6
41,29:3
41,31:2
41,32:3
41,35:3
41,36:3
41,37:7
41,38:7
41,39:7
41,40:7
41,44:3
41,45:3
41,51:2
41,52:2
41,53:7
41,54:2
41,56:2
41,58:3
41,60:7
41,61:2
41,62:3
41,63:7
41,69:6
41,70:4
42,1:1
42,3:3
42,4:3
42,9:3
42,10:3
42,13:4
42,14:2
42,15:1
42,16:1
42,17:1
42,21:4
42,22:4
42,23:2
42,24:2
42,25:6
42,28:6
42,29:3
42,31:2
42,32:3
42,35:3
42,36:3
42,37:7
42,38:7
42,39:7
42,40:7
42,44:3
42,45:3
42,51:2
42,52:2
42,53:7
42,54:2
42,56:2
42,58:3
42,60:7
42,61:2
42,62:3
42,63:7
42,69:6
42,70:4
43,1:3
43,3:5
43,4:5
43,5:2
43,6:2
43,7:2
43,8:2
43,9:5
43,10:5
43,11:2
43,12:2
43,13:6
43,14:4
43,15:3
43,16:3
43,17:3
43,20:2
43,21:6
43,22:6
43,23:4
43,24:4
43,25:8
43,26:1
43,27:1
43,28:8
43,29:5
43,30:2
43,31:4
43,32:5
43,33:1
43,34:1
43,35:5
43,36:5
43,37:9
43,38:9
43,39:9
43,40:9
43,41:2
43,42:2
43,44:5
43,45:5
43,46:2
43,48:2
43,49:2
43,51:4
43,52:4
43,53:9
43,54:4
43,56:4
43,58:5
43,59:1
43,60:9
43,61:4
43,62:5
43,63:9
43,64:2
43,68:2
43,69:8
43,70:6
44,13:1
44,21:1
44,22:1
44,25:3
44,28:3
44,37:4
44,38:4
44,39:4
44,40:4
44,53:4
44,60:4
44,63:4
44,69:3
44,70:1
45,13:1
45,21:1
45,22:1
45,25:3
45,28:3
45,37:4
45,38:4
45,39:4
45,40:4
45,53:4
45,60:4
45,63:4
45,69:3
45,70:1
46,1:1
46,3:3
46,4:3
46,9:3
46,10:3
46,13:4
46,14:2
46,15:1
46,16:1
46,17:1
46,21:4
46,22:4
46,23:2
46,24:2
46,25:6
46,28:6
46,29:3
46,31:2
46,32:3
46,35:3
46,36:3
46,37:7
46,38:7
46,39:7
46,40:7
46,44:3
46,45:3
46,51:2
46,52:2
46,53:7
46,54:2
46,56:2
46,58:3
46,60:7
46,61:2
46,62:3
46,63:7
46,69:6
46,70:4
47,1:3
47,3:5
47,4:5
47,5:2
47,6:2
47,7:2
47,8:2
47,9:5
47,10:5
47,11:2
47,12:2
47,13:6
47,14:4
47,15:3
47,16:3
47,17:3
47,20:2
47,21:6
47,22:6
47,23:4
47,24:4
47,25:8
47,26:1
47,27:1
47,28:8
47,29:5
47,30:2
47,31:4
47,32:5
47,33:1
47,34:1
47,35:5
47,36:5
47,37:9
47,38:9
47,39:9
47,40:9
47,41:2
47,42:2
47,44:5
47,45:5
47,46:2
47,48:2
47,49:2
47,51:4
47,52:4
47,53:9
47,54:4
47,56:4
47,58:5
47,59:1
47,60:9
47,61:4
47,62:5
47,63:9
47,64:2
47,68:2
47,69:8
47,70:6
48,1:1
48,3:3
48,4:3
48,9:3
48,10:3
48,13:4
48,14:2
48,15:1
48,16:1
48,17:1
48,21:4
48,22:4
48,23:2
48,24:2
48,25:6
48,28:6
48,29:3
48,31:2
48,32:3
48,35:3
48,36:3
48,37:7
48,38:7
48,39:7
48,40:7
48,44:3
48,45:3
48,51:2
48,52:2
48,53:7
48,54:2
48,56:2
48,58:3
48,60:7
48,61:2
48,62:3
48,63:7
48,69:6
48,70:4
49,1:1
49,3:3
49,4:3
49,9:3
49,10:3
49,13:4
49,14:2
49,15:1
49,16:1
49,17:1
49,21:4
49,22:4
49,23:2
49,24:2
49,25:6
49,28:6
49,29:3
49,31:2
49,32:3
49,35:3
49,36:3
49,37:7
49,38:7
49,39:7
49,40:7
49,44:3
49,45:3
49,51:2
49,52:2
49,53:7
49,54:2
49,56:2
49,58:3
49,60:7
49,61:2
49,62:3
49,63:7
49,69:6
49,70:4
50,1:3
50,3:5
50,4:5
50,5:2
50,6:2
50,7:2
50,8:2
50,9:5
50,10:5
50,11:2
50,12:2
50,13:6
50,14:4
50,15:3
50,16:3
50,17:3
50,20:2
50,21:6
50,22:6
50,23:4
50,24:4
50,25:8
50,26:1
50,27:1
50,28:8
50,29:5
50,30:2
50,31:4
50,32:5
50,33:1
50,34:1
50,35:5
50,36:5
50,37:9
50,38:9
50,39:9
50,40:9
50,41:2
50,42:2
50,44:5
50,45:5
50,46:2
50,48:2
50,49:2
50,51:4
50,52:4
50,53:9
50,54:4
50,56:4
50,58:5
50,59:1
50,60:9
50,61:4
50,62:5
50,63:9
50,64:2
50,68:2
50,69:8
50,70:6
51,3:1
51,4:1
51,9:1
51,10:1
51,13:2
51,21:2
51,22:2
51,25:4
51,28:4
51,29:1
51,32:1
51,35:1
51,36:1
51,37:5
51,38:5
51,39:5
51,40:5
51,44:1
51,45:1
51,53:5
51,58:1
51,60:5
51,62:1
51,63:5
51,69:4
51,70:2
52,3:1
52,4:1
52,9:1
52,10:1
52,13:2
52,21:2
52,22:2
52,25:4
52,28:4
52,29:1
52,32:1
52,35:1
52,36:1
52,37:5
52,38:5
52,39:5
52,40:5
52,44:1
52,45:1
52,53:5
52,58:1
52,60:5
52,62:1
52,63:5
52,69:4
52,70:2
54,3:1
54,4:1
54,9:1
54,10:1
54,13:2
54,21:2
54,22:2
54,25:4
54,28:4
54,29:1
54,32:1
54,35:1
54,36:1
54,37:5
54,38:5
54,39:5
54,40:5
54,44:1
54,45:1
54,53:5
54,58:1
54,60:5
54,62:1
54,63:5
54,69:4
54,70:2
55,1:3
55,3:5
55,4:5
55,5:2
55,6:2
55,7:2
55,8:2
55,9:5
55,10:5
55,11:2
55,12:2
55,13:6
55,14:4
55,15:3
55,16:3
55,17:3
55,20:2
55,21:6
55,22:6
55,23:4
55,24:4
55,25:8
55,26:1
55,27:1
55,28:8
55,29:5
55,30:2
55,31:4
55,32:5
55,33:1
55,34:1
55,35:5
55,36:5
55,37:9
55,38:9
55,39:9
55,40:9
55,41:2
55,42:2
55,44:5
55,45:5
55,46:2
55,48:2
55,49:2
55,51:4
55,52:4
55,53:9
55,54:4
55,56:4
55,58:5
55,59:1
55,60:9
55,61:4
55,62:5
55,63:9
55,64:2
55,68:2
55,69:8
55,70:6
56,3:1
56,4:1
56,9:1
56,10:1
56,13:2
56,21:2
56,22:2
56,25:4
56,28:4
56,29:1
56,32:1
56,35:1
56,36:1
56,37:5
56,38:5
56,39:5
56,40:5
56,44:1
56,45:1
56,53:5
56,58:1
56,60:5
56,62:1
56,63:5
56,69:4
56,70:2
57,1:4
57,3:6
57,4:6
57,5:3
57,6:3
57,7:3
57,8:3
57,9:6
57,10:6
57,11:3
57,12:3
57,13:7
57,14:5
57,15:4
57,16:4
57,17:4
57,20:3
57,21:7
57,22:7
57,23:5
57,24:5
57,25:9
57,26:2
57,27:2
57,28:9
57,29:6
57,30:3
57,31:5
57,32:6
57,33:2
57,34:2
57,35:6
57,36:6
57,37:10
57,38:10
57,39:10
57,40:10
57,41:3
57,42:3
57,43:1
57,44:6
57,45:6
57,46:3
57,47:1
57,48:3
57,49:3
57,50:1
57,51:5
57,52:5
57,53:10
57,54:5
57,55:1
57,56:5
57,61:5
57,62:6
57,63:10
57,64:3
57,65:1
57,66:1
57,67:1
57,68:3
57,69:9
57,70:7
58,13:1
58,21:1
58,22:1
58,25:3
58,28:3
58,37:4
58,38:4
58,39:4
58,40:4
58,53:4
58,63:4
58,69:3
58,70:1
59,1:2
59,3:4
59,4:4
59,5:1
59,6:1
59,7:1
59,8:1
59,9:4
59,10:4
59,11:1
59,12:1
59,13:5
59,14:3
59,15:2
59,16:2
59,17:2
59,20:1
59,21:5
59,22:5
59,23:3
59,24:3
59,25:7
59,28:7
59,29:4
59,30:1
59,31:3
59,32:4
59,35:4
59,36:4
59,37:8
59,38:8
59,39:8
59,40:8
59,41:1
59,42:1
59,44:4
59,45:4
59,46:1
59,48:1
59,49:1
59,51:3
59,52:3
59,53:8
59,54:3
59,56:3
59,58:4
59,61:3
59,62:4
59,63:8
59,64:1
59,68:1
59,69:7
59,70:5
61,3:1
61,4:1
61,9:1
61,10:1
61,13:2
61,21:2
61,22:2
61,25:4
61,28:4
61,29:1
61,32:1
61,35:1
61,36:1
61,37:5
61,38:5
61,39:5
61,40:5
61,44:1
61,45:1
61,53:5
61,58:1
61,60:5
61,62:1
61,63:5
61,69:4
61,70:2
62,13:1
62,21:1
62,22:1
62,25:3
62,28:3
62,37:4
62,38:4
62,39:4
62,40:4
62,53:4
62,60:4
62,69:3
62,70:1
64,1:1
64,3:3
64,4:3
64,9:3
64,10:3
64,13:4
64,14:2
64,15:1
64,16:1
64,17:1
64,21:4
64,22:4
64,23:2
64,24:2
64,25:6
64,28:6
64,29:3
64,31:2
64,32:3
64,35:3
64,36:3
64,37:7
64,38:7
64,39:7
64,40:7
64,44:3
64,45:3
64,51:2
64,52:2
64,53:7
64,54:2
64,56:2
64,58:3
64,60:7
64,61:2
64,62:3
64,63:7
64,69:6
64,70:4
65,1:3
65,3:5
65,4:5
65,5:2
65,6:2
65,7:2
65,8:2
65,9:5
65,10:5
65,11:2
65,12:2
65,13:6
65,14:4
65,15:3
65,16:3
65,17:3
65,20:2
65,21:6
65,22:6
65,23:4
65,24:4
65,25:8
65,26:1
65,27:1
65,28:8
65,29:5
65,30:2
65,31:4
65,32:5
65,33:1
65,34:1
65,35:5
65,36:5
65,37:9
65,38:9
65,39:9
65,40:9
65,41:2
65,42:2
65,44:5
65,45:5
65,46:2
65,48:2
65,49:2
65,51:4
65,52:4
65,53:9
65,54:4
65,56:4
65,58:5
65,59:1
65,60:9
65,61:4
65,62:5
65,63:9
65,64:2
65,68:2
65,69:8
65,70:6
66,1:3
66,3:5
66,4:5
66,5:2
66,6:2
66,7:2
66,8:2
66,9:5
66,10:5
66,11:2
66,12:2
66,13:6
66,14:4
66,15:3
66,16:3
66,17:3
66,20:2
66,21:6
66,22:6
66,23:4
66,24:4
66,25:8
66,26:1
66,27:1
66,28:8
66,29:5
66,30:2
66,31:4
66,32:5
66,33:1
66,34:1
66,35:5
66,36:5
66,37:9
66,38:9
66,39:9
66,40:9
66,41:2
66,42:2
66,44:5
66,45:5
66,46:2
66,48:2
66,49:2
66,51:4
66,52:4
66,53:9
66,54:4
66,56:4
66,58:5
66,59:1
66,60:9
66,61:4
66,62:5
66,63:9
66,64:2
66,68:2
66,69:8
66,70:6
67,1:3
67,3:5
67,4:5
67,5:2
67,6:2
67,7:2
67,8:2
67,9:5
67,10:5
67,11:2
67,12:2
67,13:6
67,14:4
67,15:3
67,16:3
67,17:3
67,20:2
67,21:6
67,22:6
67,23:4
67,24:4
67,25:8
67,26:1
67,27:1
67,28:8
67,29:5
67,30:2
67,31:4
67,32:5
67,33:1
67,34:1
67,35:5
67,36:5
67,37:9
67,38:9
67,39:9
67,40:9
67,41:2
67,42:2
67,44:5
67,45:5
67,46:2
67,48:2
67,49:2
67,51:4
67,52:4
67,53:9
67,54:4
67,56:4
67,58:5
67,59:1
67,60:9
67,61:4
67,62:5
67,63:9
67,64:2
67,68:2
67,69:8
67,70:6
68,1:1
68,3:3
68,4:3
68,9:3
68,10:3
68,13:4
68,14:2
68,15:1
68,16:1
68,17:1
68,21:4
68,22:4
68,23:2
68,24:2
68,25:6
68,28:6
68,29:3
68,31:2
68,32:3
68,35:3
68,36:3
68,37:7
68,38:7
68,39:7
68,40:7
68,44:3
68,45:3
68,51:2
68,52:2
68,53:7
68,54:2
68,56:2
68,58:3
68,60:7
68,61:2
68,62:3
68,63:7
68,69:6
68,70:4
69,37:1
69,38:1
69,39:1
69,40:1
69,53:1
69,60:1
69,63:1
70,25:2
70,28:2
70,37:3
70,38:3
70,39:3
70,40:3
70,53:3
70,60:3
70,63:3
70,69:2

<end>

<optimal SALBP-1 value>
14


<rand seed>
467321153

